\ENCODING=ISO-8859-1
\Problem name: 

Minimize
 obj: 480 x1 + 200 x2 + 320 x3 + 340 x4 + 300 x5 + 24 x6 + 74 x7 + 31 x8
      + 51 x9 + 84 x10 + 57 x11 + 54 x12 + 86 x13 + 61 x14 + 68 x15 + 57 x16
      + 67 x17 + 29 x18 + 91 x19 + 71 x20 + 54 x21 + 54 x22 + 65 x23 + 82 x24
      + 94 x25 + 98 x26 + 81 x27 + 16 x28 + 61 x29 + 27 x30 + 13 x31 + 92 x32
      + 34 x33 + 94 x34 + 87 x35 + 54 x36 + 72 x37 + 41 x38 + 12 x39 + 78 x40
      + 54 x41 + 64 x42 + 65 x43 + 89 x44 + 89 x45
Subject To
 c1:  x6 + x7 + x8 + x9 + x10  = 1
 c2:  x11 + x12 + x13 + x14 + x15  = 1
 c3:  x16 + x17 + x18 + x19 + x20  = 1
 c4:  x21 + x22 + x23 + x24 + x25  = 1
 c5:  x26 + x27 + x28 + x29 + x30  = 1
 c6:  x31 + x32 + x33 + x34 + x35  = 1
 c7:  x36 + x37 + x38 + x39 + x40  = 1
 c8:  x41 + x42 + x43 + x44 + x45  = 1
 c9:  - 3 x1 + x6 + x11 + x16 + x21 + x26 + x31 + x36 + x41 <= 0
 c10: - x2 + x7 + x12 + x17 + x22 + x27 + x32 + x37 + x42 <= 0
 c11: - 2 x3 + x8 + x13 + x18 + x23 + x28 + x33 + x38 + x43 <= 0
 c12: - 4 x4 + x9 + x14 + x19 + x24 + x29 + x34 + x39 + x44 <= 0
 c13: - x5 + x10 + x15 + x20 + x25 + x30 + x35 + x40 + x45 <= 0
Bounds
 0 <= x1 <= 1
 0 <= x2 <= 1
 0 <= x3 <= 1
 0 <= x4 <= 1
 0 <= x5 <= 1
 0 <= x6 <= 1
 0 <= x7 <= 1
 0 <= x8 <= 1
 0 <= x9 <= 1
 0 <= x10 <= 1
 0 <= x11 <= 1
 0 <= x12 <= 1
 0 <= x13 <= 1
 0 <= x14 <= 1
 0 <= x15 <= 1
 0 <= x16 <= 1
 0 <= x17 <= 1
 0 <= x18 <= 1
 0 <= x19 <= 1
 0 <= x20 <= 1
 0 <= x21 <= 1
 0 <= x22 <= 1
 0 <= x23 <= 1
 0 <= x24 <= 1
 0 <= x25 <= 1
 0 <= x26 <= 1
 0 <= x27 <= 1
 0 <= x28 <= 1
 0 <= x29 <= 1
 0 <= x30 <= 1
 0 <= x31 <= 1
 0 <= x32 <= 1
 0 <= x33 <= 1
 0 <= x34 <= 1
 0 <= x35 <= 1
 0 <= x36 <= 1
 0 <= x37 <= 1
 0 <= x38 <= 1
 0 <= x39 <= 1
 0 <= x40 <= 1
 0 <= x41 <= 1
 0 <= x42 <= 1
 0 <= x43 <= 1
 0 <= x44 <= 1
 0 <= x45 <= 1
Binaries
 x1  x2  x3  x4  x5  x6  x7  x8  x9  x10  x11  x12  x13  x14  x15  x16  x17 
 x18  x19  x20  x21  x22  x23  x24  x25  x26  x27  x28  x29  x30  x31  x32 
 x33  x34  x35  x36  x37  x38  x39  x40  x41  x42  x43  x44  x45 
End
